============================[ Problem Statistics ]=============================|                                                                             ||  Number of variables:          4242                                         ||  Number of clauses:           10439                                         ||  Parse time:                   0.82 s                                       ||                                                                             |============================[ Search Statistics ]==============================| Conflicts |          ORIGINAL         |          LEARNT          | Progress ||           |    Vars  Clauses Literals |    Limit  Clauses Lit/Cl |          |===============================================================================|       100 |    1591     6644  1318005 |     2436      100     53 | 62.501 % ||       250 |    1591     6644  1318005 |     2679      250     75 | 62.495 % |===============================================================================restarts              : 4conflicts             : 445            (360 /sec)decisions             : 803            (0.00 % random) (649 /sec)propagations          : 13734          (11103 /sec)conflict literals     : 37630          (94.47 % deleted)CPU time              : 1.237 sSATISFIABLE